
Gurobi 12.0.2 (win64) logging started Sun Jun  8 11:00:42 2025

Set parameter LogFile to value "./resultados/gurobi.log"
Gurobi Optimizer version 12.0.2 build v12.0.2rc0 (win64 - Windows 11.0 (26100.2))

CPU model: 12th Gen Intel(R) Core(TM) i5-12400F, instruction set [SSE2|AVX|AVX2]
Thread count: 6 physical cores, 12 logical processors, using up to 12 threads

Optimize a model with 393 rows, 251 columns and 1443 nonzeros
Model fingerprint: 0xdfb75893
Variable types: 55 continuous, 196 integer (196 binary)
Coefficient statistics:
  Matrix range     [1e+00, 1e+07]
  Objective range  [1e+00, 1e+00]
  Bounds range     [1e+00, 1e+01]
  RHS range        [1e+00, 1e+07]
Presolve removed 27 rows and 42 columns
Presolve time: 0.02s
Presolved: 366 rows, 209 columns, 2764 nonzeros
Variable types: 27 continuous, 182 integer (182 binary)

Root relaxation: objective 0.000000e+00, 105 iterations, 0.00 seconds (0.00 work units)

    Nodes    |    Current Node    |     Objective Bounds      |     Work
 Expl Unexpl |  Obj  Depth IntInf | Incumbent    BestBd   Gap | It/Node Time

     0     0    0.00000    0    6          -    0.00000      -     -    0s
     0     0    0.00000    0   15          -    0.00000      -     -    0s
     0     0    0.00000    0   15          -    0.00000      -     -    0s
     0     0    0.00000    0   12          -    0.00000      -     -    0s
     0     0    0.00000    0   14          -    0.00000      -     -    0s
     0     0    0.00000    0   16          -    0.00000      -     -    0s
     0     0    0.00000    0   10          -    0.00000      -     -    0s
     0     0    0.00000    0    7          -    0.00000      -     -    0s
     0     2   85.81860    0    7          -   85.81860      -     -    0s
H17336  9560                    7553.0075131  104.49284  98.6%   6.4    0s
 82465 34394 1298.18784   52   10 7553.00751  967.80115  87.2%   7.1    5s
 213873 116432 1636.16671   61   10 7553.00751 1121.54493  85.2%   7.3   10s
 346081 197216 2302.63523   68   19 7553.00751 1190.97986  84.2%   7.4   15s
 459970 265340 1628.01949   75   15 7553.00751 1233.17581  83.7%   7.5   20s
 589054 342112 3392.82684   56   13 7553.00751 1270.39825  83.2%   7.5   25s
 712450 416319 2945.85257   53    7 7553.00751 1300.32708  82.8%   7.5   30s

Cutting planes:
  Learned: 38
  Gomory: 14
  Implied bound: 29
  Projected implied bound: 9
  MIR: 8
  Mixing: 1
  Flow cover: 52
  Zero half: 1
  Relax-and-lift: 7

Explored 764250 nodes (5712320 simplex iterations) in 31.95 seconds (29.65 work units)
Thread count was 12 (of 12 available processors)

Solution count 1: 7553.01 

Solve interrupted
Best objective 7.553007513092e+03, best bound 1.311540744996e+03, gap 82.6355%

Gurobi 12.0.2 (win64) logging started Sun Jun  8 11:02:12 2025

Set parameter LogFile to value "./resultados/gurobi.log"
Gurobi Optimizer version 12.0.2 build v12.0.2rc0 (win64 - Windows 11.0 (26100.2))

CPU model: 12th Gen Intel(R) Core(TM) i5-12400F, instruction set [SSE2|AVX|AVX2]
Thread count: 6 physical cores, 12 logical processors, using up to 12 threads

Optimize a model with 163 rows, 116 columns and 568 nonzeros
Model fingerprint: 0x17f8a991
Variable types: 35 continuous, 81 integer (81 binary)
Coefficient statistics:
  Matrix range     [1e+00, 1e+07]
  Objective range  [1e+00, 1e+00]
  Bounds range     [1e+00, 8e+00]
  RHS range        [1e+00, 1e+07]
Presolve removed 17 rows and 27 columns
Presolve time: 0.00s
Presolved: 146 rows, 89 columns, 864 nonzeros
Variable types: 17 continuous, 72 integer (72 binary)

Root relaxation: objective 0.000000e+00, 53 iterations, 0.00 seconds (0.00 work units)

    Nodes    |    Current Node    |     Objective Bounds      |     Work
 Expl Unexpl |  Obj  Depth IntInf | Incumbent    BestBd   Gap | It/Node Time

     0     0    0.00000    0   17          -    0.00000      -     -    0s
     0     0    0.00000    0   13          -    0.00000      -     -    0s
     0     0    0.00000    0   17          -    0.00000      -     -    0s
     0     0    0.00000    0   14          -    0.00000      -     -    0s
     0     0    0.00000    0   13          -    0.00000      -     -    0s
     0     0    0.00132    0   14          -    0.00132      -     -    0s
     0     0   26.71747    0   15          -   26.71747      -     -    0s
     0     0   84.54255    0    9          -   84.54255      -     -    0s
     0     0   84.54255    0    9          -   84.54255      -     -    0s
     0     0  132.95583    0   21          -  132.95583      -     -    0s
     0     0  206.07474    0   13          -  206.07474      -     -    0s
     0     0  206.07474    0   13          -  206.07474      -     -    0s
     0     0  288.35480    0    9          -  288.35480      -     -    0s
     0     0  310.07655    0    6          -  310.07655      -     -    0s
     0     0  320.57739    0    6          -  320.57739      -     -    0s
     0     0  326.15147    0   17          -  326.15147      -     -    0s
     0     0  331.80738    0   15          -  331.80738      -     -    0s
     0     0  335.24170    0   15          -  335.24170      -     -    0s
     0     0  335.44124    0   15          -  335.44124      -     -    0s
     0     2  340.58074    0   15          -  340.58074      -     -    0s
H21075  2125                    1510.7363297  851.26717  43.7%   5.9    0s
H21115  2031                    1450.5079734  851.35378  41.3%   5.9    0s

Cutting planes:
  Learned: 4
  Gomory: 1
  Implied bound: 11
  MIR: 4
  Mixing: 16
  Flow cover: 93
  RLT: 3

Explored 27326 nodes (207466 simplex iterations) in 0.96 seconds (0.73 work units)
Thread count was 12 (of 12 available processors)

Solution count 2: 1450.51 1510.74 

Optimal solution found (tolerance 1.00e-04)
Best objective 1.450507973432e+03, best bound 1.450507973432e+03, gap 0.0000%

Gurobi 12.0.2 (win64) logging started Sun Jun  8 11:09:04 2025

Set parameter LogFile to value "./resultados/gurobi.log"
Gurobi Optimizer version 12.0.2 build v12.0.2rc0 (win64 - Windows 11.0 (26100.2))

CPU model: 12th Gen Intel(R) Core(TM) i5-12400F, instruction set [SSE2|AVX|AVX2]
Thread count: 6 physical cores, 12 logical processors, using up to 12 threads

Optimize a model with 163 rows, 116 columns and 568 nonzeros
Model fingerprint: 0x17f8a991
Variable types: 35 continuous, 81 integer (81 binary)
Coefficient statistics:
  Matrix range     [1e+00, 1e+07]
  Objective range  [1e+00, 1e+00]
  Bounds range     [1e+00, 8e+00]
  RHS range        [1e+00, 1e+07]
Presolve removed 17 rows and 27 columns
Presolve time: 0.00s
Presolved: 146 rows, 89 columns, 864 nonzeros
Variable types: 17 continuous, 72 integer (72 binary)

Root relaxation: objective 0.000000e+00, 53 iterations, 0.00 seconds (0.00 work units)

    Nodes    |    Current Node    |     Objective Bounds      |     Work
 Expl Unexpl |  Obj  Depth IntInf | Incumbent    BestBd   Gap | It/Node Time

     0     0    0.00000    0   17          -    0.00000      -     -    0s
     0     0    0.00000    0   13          -    0.00000      -     -    0s
     0     0    0.00000    0   17          -    0.00000      -     -    0s
     0     0    0.00000    0   14          -    0.00000      -     -    0s
     0     0    0.00000    0   13          -    0.00000      -     -    0s
     0     0    0.00132    0   14          -    0.00132      -     -    0s
     0     0   26.71747    0   15          -   26.71747      -     -    0s
     0     0   84.54255    0    9          -   84.54255      -     -    0s
     0     0   84.54255    0    9          -   84.54255      -     -    0s
     0     0  132.95583    0   21          -  132.95583      -     -    0s
     0     0  206.07474    0   13          -  206.07474      -     -    0s
     0     0  206.07474    0   13          -  206.07474      -     -    0s
     0     0  288.35480    0    9          -  288.35480      -     -    0s
     0     0  310.07655    0    6          -  310.07655      -     -    0s
     0     0  320.57739    0    6          -  320.57739      -     -    0s
     0     0  326.15147    0   17          -  326.15147      -     -    0s
     0     0  331.80738    0   15          -  331.80738      -     -    0s
     0     0  335.24170    0   15          -  335.24170      -     -    0s
     0     0  335.44124    0   15          -  335.44124      -     -    0s
     0     2  340.58074    0   15          -  340.58074      -     -    0s
H21075  2125                    1510.7363297  851.26717  43.7%   5.9    0s
H21115  2031                    1450.5079734  851.35378  41.3%   5.9    0s

Cutting planes:
  Learned: 4
  Gomory: 1
  Implied bound: 11
  MIR: 4
  Mixing: 16
  Flow cover: 93
  RLT: 3

Explored 27326 nodes (207466 simplex iterations) in 0.99 seconds (0.73 work units)
Thread count was 12 (of 12 available processors)

Solution count 2: 1450.51 1510.74 

Optimal solution found (tolerance 1.00e-04)
Best objective 1.450507973432e+03, best bound 1.450507973432e+03, gap 0.0000%

Gurobi 12.0.2 (win64) logging started Sun Jun  8 11:09:32 2025

Set parameter LogFile to value "./resultados/gurobi.log"
Gurobi Optimizer version 12.0.2 build v12.0.2rc0 (win64 - Windows 11.0 (26100.2))

CPU model: 12th Gen Intel(R) Core(TM) i5-12400F, instruction set [SSE2|AVX|AVX2]
Thread count: 6 physical cores, 12 logical processors, using up to 12 threads

Non-default parameters:
TimeLimit  3600

Optimize a model with 117 rows, 129 columns and 447 nonzeros
Model fingerprint: 0x87ece17e
Variable types: 29 continuous, 100 integer (100 binary)
Coefficient statistics:
  Matrix range     [1e+00, 1e+07]
  Objective range  [1e+00, 1e+00]
  Bounds range     [1e+00, 1e+00]
  RHS range        [1e+00, 1e+07]
Found heuristic solution: objective 567.1484997
Presolve removed 31 rows and 31 columns
Presolve time: 0.00s
Presolved: 86 rows, 98 columns, 365 nonzeros
Variable types: 9 continuous, 89 integer (89 binary)

Root relaxation: objective 0.000000e+00, 38 iterations, 0.00 seconds (0.00 work units)

    Nodes    |    Current Node    |     Objective Bounds      |     Work
 Expl Unexpl |  Obj  Depth IntInf | Incumbent    BestBd   Gap | It/Node Time

     0     0    0.00000    0    4  567.14850    0.00000   100%     -    0s
H    0     0                     244.3465695    0.00000   100%     -    0s
H    0     0                     222.8638727    0.00000   100%     -    0s
H    0     0                     215.8494624    0.00000   100%     -    0s
     0     0    0.00000    0   16  215.84946    0.00000   100%     -    0s
H    0     0                     152.1110255    0.00000   100%     -    0s
H    0     0                     137.1135777    0.00000   100%     -    0s
H    0     0                      91.0088785    0.00000   100%     -    0s
     0     0   12.64653    0   10   91.00888   12.64653  86.1%     -    0s
     0     0   12.64653    0   10   91.00888   12.64653  86.1%     -    0s
     0     0   26.07568    0    4   91.00888   26.07568  71.3%     -    0s
     0     0   30.88528    0   13   91.00888   30.88528  66.1%     -    0s
H    0     0                      87.8217036   30.88528  64.8%     -    0s
H    0     0                      87.1947375   66.71068  23.5%     -    0s
     0     0   87.19474    0   11   87.19474   87.19474  0.00%     -    0s

Cutting planes:
  Learned: 1
  Implied bound: 2
  MIR: 4
  RLT: 4
  Relax-and-lift: 3

Explored 1 nodes (230 simplex iterations) in 0.03 seconds (0.01 work units)
Thread count was 12 (of 12 available processors)

Solution count 10: 87.1947 87.8217 91.0089 ... 567.148

Optimal solution found (tolerance 1.00e-04)
Best objective 8.719473752007e+01, best bound 8.719473752007e+01, gap 0.0000%
